HUN,8,6,995
1,10,2,7,0,2,4,28,5,19,3,14
0,26,1,21,2,17,4,15,5,26,3,17
2,15,0,28,1,29,5,17,4,9,3,14
2,21,0,18,1,10,3,24,5,19,4,5
1,12,2,28,0,23,5,1,4,24,3,15
1,18,0,20,2,11,4,10,3,20,5,3
0,12,2,29,1,17,4,25,3,23,5,18
1,15,0,26,2,5,5,8,4,30,3,26
